p cnf 50 10
x -2 -4 -7 8 9 10 -14 -16 17 -18 -21 24 -30 32 -33 -34 36 38 -39 -45 -47 49 50 0
x 4 -5 6 7 8 9 10 -14 -17 18 19 -20 22 -24 25 27 -28 29 30 32 33 -34 35 -36 42 44 47 -49 0
x -1 -2 3 -9 10 14 -16 18 -21 -24 26 -27 -34 -38 -39 40 41 43 44 -45 48 49 0
x 1 -2 -4 6 -12 15 17 -19 -20 -21 -24 -25 27 28 29 31 33 35 39 45 -48 0
x -1 -2 -3 -6 7 -9 -10 13 -14 -15 17 -19 -20 21 22 -24 26 27 -32 -34 -35 36 37 39 -40 42 48 0
x -1 -2 3 5 6 -7 -9 -11 -12 15 -21 22 23 -24 -25 -29 -30 -32 34 35 -39 44 -45 -50 0
x -1 -2 5 -10 11 -13 -15 -17 -18 21 -23 -27 28 -29 -30 -33 -34 -35 -37 38 41 43 44 -45 46 48 0
x 1 -5 -6 -10 -11 12 18 20 -21 23 24 25 -27 30 35 36 37 -38 -40 41 43 44 45 -46 -47 50 0
x 5 6 8 11 -12 13 -15 -18 -19 21 -23 -28 -30 31 -33 34 -38 40 41 42 43 -47 -50 0
x -3 6 -10 -11 12 -13 14 -19 -20 -22 -23 -25 29 -32 -33 -34 35 36 37 40 -42 43 -45 -47 48 -49 0
g -15